ACTORES = {Actor1, Actor2, Actor3, Actor4} ;

Escenas = [| 1,1,0,0,1,0,9
           | 1,0,1,1,0,1,22
           | 0,0,1,0,1,1,12
           | 1,1,0,1,1,1,18|]; 
           
Duracion = [2,1,1,1,3,4];

Disponibilidad =[|Actor1, 8
                 |Actor2, 11
                 |Actor3, 0
                 |Actor4, 15|];

Evitar =[|Actor2, Actor3|];
         

% ----------
% 3 6 4 1 5 2 560 8
% ----------
% ==========
% Finished in 474msec.